c Result of efficient AIG-to-CNF conversion using package CNF
p cnf 9 20
-2 8 4 0
-2 3 4 0
-2 4 5 0
-2 8 3 0
2 -3 -4 0
2 -8 -4 0
2 -8 -3 -5 0
3 -9 -10 0
-3 9 0
-3 10 0
4 -6 -7 -10 0
4 -6 -7 -9 0
-4 6 0
-4 7 0
-4 9 10 0
-5 6 7 0
5 -6 0
5 -7 0
-11 0
2 0

